--------------------------------------------------------------------------------(Solver execution current time: 0.00013971328735351562)
[INFO] Input Seed : 0
--------------------------------------------------------------------------------(Solver execution current time: 0.0001671314239501953)
[INFO] Input time limit : 30
--------------------------------------------------------------------------------(Solver execution current time: 0.00018596649169921875)
[INFO] Command line arguments read with no errors.
--------------------------------------------------------------------------------(Solver execution current time: 0.013013362884521484)
[INFO] Input file read with no errors.
--------------------------------------------------------------------------------(Solver execution current time: 0.013084888458251953)
[INFO] Starting solver.
--------------------------------------------------------------------------------(Solver execution current time: 0.013131141662597656)
[INFO] Starting construction
--------------------------------------------------------------------------------(Solver execution current time: 4.553558111190796)
[INFO] Finished construction
--------------------------------------------------------------------------------(Solver execution current time: 4.553631544113159)
[SOLUTION]
Basic Greedy Heuristic
Exec Time: 4.540423393249512
obj_value: -47; obj_routes: 924
Route 1 : 31 40 12 21 81 62 8 71 27 77 45 90 95 58 
Route 2 : 20 28 49 70 43 78 93 99 38 88 
Route 3 : 23 1 73 51 50 36 100 86 
Route 4 : 5 55 13 63 35 14 47 64 85 97 44 94 25 6 56 75 
Route 5 : 26 76 42 17 67 29 92 3 22 79 72 18 68 53 
Route 6 : 30 33 80 7 57 39 10 2 83 60 52 89 48 9 59 37 98 87 
Route 7 : 15 34 84 16 66 32 82 24 74 65 4 46 96 54 

--------------------------------------------------------------------------------(Solver execution current time: 4.554110050201416)
[SOLUTION]
Solution after BasicGreedyLimitedFleet
obj_value: -47; obj_routes: 924
Route 1 : 31 40 12 21 81 62 8 71 27 77 45 90 95 58 
Route 2 : 20 28 49 70 43 78 93 99 38 88 
Route 3 : 23 1 73 51 50 36 100 86 
Route 4 : 5 55 13 63 35 14 47 64 85 97 44 94 25 6 56 75 
Route 5 : 26 76 42 17 67 29 92 3 22 79 72 18 68 53 
Route 6 : 30 33 80 7 57 39 10 2 83 60 52 89 48 9 59 37 98 87 
Route 7 : 15 34 84 16 66 32 82 24 74 65 4 46 96 54 

--------------------------------------------------------------------------------(Solver execution current time: 4.55426287651062)
[INFO] Starting metaheuristic
--------------------------------------------------------------------------------(Solver execution current time: 4.55583381652832)
[INFO] AGES EXCLUDED
--------------------------------------------------------------------------------(Solver execution current time: 9.374795913696289)
[SOLUTION]
LNS
IT: 27
Exec Time: 4.8171000480651855
Improved
obj_value: -47; obj_routes: 923
Route 1 : 31 40 12 21 81 62 8 71 27 77 45 90 95 58 
Route 2 : 20 28 49 70 11 78 99 61 38 88 
Route 3 : 23 1 73 51 50 36 100 86 
Route 4 : 5 55 13 63 35 14 64 19 85 44 94 69 25 6 56 75 
Route 5 : 26 76 41 17 67 29 91 3 22 79 72 18 68 53 
Route 6 : 30 33 80 7 57 39 10 2 83 60 52 89 48 9 59 37 98 87 
Route 7 : 15 34 84 16 66 32 82 24 74 65 43 4 54 93 

--------------------------------------------------------------------------------(Solver execution current time: 9.469975233078003)
[SOLUTION]
PartitionMaxRequests
Exec Time: 0.09372854232788086
obj_value: -47; obj_routes: 923
Route 1 : 31 40 12 21 81 62 8 71 27 77 45 90 95 58 
Route 2 : 23 1 73 51 50 36 100 86 
Route 3 : 30 33 80 7 57 39 10 2 83 60 52 89 48 9 59 37 98 87 
Route 4 : 20 28 49 70 11 78 99 61 38 88 
Route 5 : 5 55 13 63 35 14 64 19 85 44 94 69 25 6 56 75 
Route 6 : 26 76 41 17 67 29 91 3 22 79 72 18 68 53 
Route 7 : 15 34 84 16 66 32 82 24 74 65 43 4 54 93 

--------------------------------------------------------------------------------(Solver execution current time: 13.873215436935425)
[SOLUTION]
Original Perturbation
Exec Time: 4.402343511581421
obj_value: -47; obj_routes: 938
Route 1 : 31 40 12 21 81 62 9 59 8 71 45 90 95 58 
Route 2 : 20 28 49 70 44 78 94 99 38 88 
Route 3 : 23 1 73 51 36 86 
Route 4 : 5 55 13 63 35 2 52 16 66 19 85 69 4 54 
Route 5 : 26 76 41 17 67 10 29 60 91 3 22 79 72 18 68 53 
Route 6 : 14 64 30 33 80 7 57 39 27 77 89 83 48 34 84 6 56 98 37 87 
Route 7 : 15 32 82 24 74 65 43 11 61 50 93 100 25 75 

--------------------------------------------------------------------------------(Solver execution current time: 13.873809576034546)
[SOLUTION]
SBMath
IT: 1
ITs witout improving: 1
IT time: 9.317978858947754
Time since begin: 9.318524837493896
obj_value: -47; obj_routes: 938
Route 1 : 31 40 12 21 81 62 9 59 8 71 45 90 95 58 
Route 2 : 20 28 49 70 44 78 94 99 38 88 
Route 3 : 23 1 73 51 36 86 
Route 4 : 5 55 13 63 35 2 52 16 66 19 85 69 4 54 
Route 5 : 26 76 41 17 67 10 29 60 91 3 22 79 72 18 68 53 
Route 6 : 14 64 30 33 80 7 57 39 27 77 89 83 48 34 84 6 56 98 37 87 
Route 7 : 15 32 82 24 74 65 43 11 61 50 93 100 25 75 

--------------------------------------------------------------------------------(Solver execution current time: 13.873947143554688)
[SOLUTION]
SBMath
IT: 1
ITs witout improving: 1
IT time: 9.317978858947754
Time since begin: 9.318524837493896
obj_value: -47; obj_routes: 920
Route 1 : 31 40 12 21 81 62 9 59 8 71 45 90 95 58 
Route 2 : 20 28 49 70 11 78 99 61 38 88 
Route 3 : 23 1 73 51 50 36 100 86 
Route 4 : 5 55 13 63 35 2 52 19 85 44 94 69 4 54 
Route 5 : 26 76 41 17 67 10 29 60 91 3 22 79 72 18 68 53 
Route 6 : 30 33 80 7 57 39 27 77 89 83 48 34 84 37 98 87 
Route 7 : 14 15 64 16 66 32 82 24 74 65 43 93 6 25 56 75 

--------------------------------------------------------------------------------(Solver execution current time: 13.874083995819092)
[INFO] AGES EXCLUDED
--------------------------------------------------------------------------------(Solver execution current time: 20.66888737678528)
[SOLUTION]
LNS
IT: 36
Exec Time: 6.79294490814209
Improved
obj_value: -47; obj_routes: 912
Route 1 : 31 40 12 21 81 62 9 59 8 71 46 90 96 58 
Route 2 : 20 28 49 70 43 78 93 99 38 88 
Route 3 : 23 1 73 51 50 36 100 86 
Route 4 : 5 55 13 63 35 2 52 16 66 19 85 69 4 54 
Route 5 : 26 76 41 17 67 10 29 60 91 3 22 79 72 18 68 53 
Route 6 : 14 64 30 33 80 7 57 39 27 77 89 83 48 34 84 6 56 37 98 87 
Route 7 : 15 32 82 24 47 74 65 97 11 61 25 75 

--------------------------------------------------------------------------------(Solver execution current time: 20.679490089416504)
[SOLUTION]
PartitionMaxRequests
Exec Time: 0.009004592895507812
obj_value: -47; obj_routes: 912
Route 1 : 20 28 49 70 43 78 93 99 38 88 
Route 2 : 23 1 73 51 50 36 100 86 
Route 3 : 31 40 12 21 81 62 9 59 8 71 46 90 96 58 
Route 4 : 5 55 13 63 35 2 52 16 66 19 85 69 4 54 
Route 5 : 26 76 41 17 67 10 29 60 91 3 22 79 72 18 68 53 
Route 6 : 14 64 30 33 80 7 57 39 27 77 89 83 48 34 84 6 56 37 98 87 
Route 7 : 15 32 82 24 47 74 65 97 11 61 25 75 

--------------------------------------------------------------------------------(Solver execution current time: 24.11932921409607)
[SOLUTION]
Original Perturbation
Exec Time: 3.439568042755127
obj_value: -47; obj_routes: 932
Route 1 : 31 40 12 21 81 62 71 37 90 87 16 66 25 6 56 75 
Route 2 : 20 28 49 70 11 78 99 61 
Route 3 : 23 1 73 51 50 36 100 86 
Route 4 : 5 55 13 41 63 35 10 91 60 19 85 69 4 54 
Route 5 : 26 76 17 67 2 29 9 59 52 3 22 79 72 38 88 53 
Route 6 : 14 64 30 33 80 7 57 39 43 89 83 34 84 93 8 58 
Route 7 : 15 32 82 24 47 74 65 97 18 48 27 77 68 46 98 96 

--------------------------------------------------------------------------------(Solver execution current time: 24.119951009750366)
[SOLUTION]
SBMath
IT: 2
ITs witout improving: 2
IT time: 10.245870113372803
Time since begin: 19.564666032791138
obj_value: -47; obj_routes: 932
Route 1 : 31 40 12 21 81 62 71 37 90 87 16 66 25 6 56 75 
Route 2 : 20 28 49 70 11 78 99 61 
Route 3 : 23 1 73 51 50 36 100 86 
Route 4 : 5 55 13 41 63 35 10 91 60 19 85 69 4 54 
Route 5 : 26 76 17 67 2 29 9 59 52 3 22 79 72 38 88 53 
Route 6 : 14 64 30 33 80 7 57 39 43 89 83 34 84 93 8 58 
Route 7 : 15 32 82 24 47 74 65 97 18 48 27 77 68 46 98 96 

--------------------------------------------------------------------------------(Solver execution current time: 24.120096683502197)
[SOLUTION]
SBMath
IT: 2
ITs witout improving: 2
IT time: 10.245870113372803
Time since begin: 19.564666032791138
obj_value: -47; obj_routes: 895
Route 1 : 31 40 12 21 81 62 9 59 8 71 46 90 96 58 
Route 2 : 20 28 49 70 11 78 99 61 38 88 
Route 3 : 23 1 73 51 50 36 100 86 
Route 4 : 5 55 13 63 35 2 52 16 66 19 85 69 4 54 
Route 5 : 26 76 41 17 67 10 29 60 91 3 22 79 72 53 
Route 6 : 14 64 30 33 80 7 57 39 27 77 89 83 48 34 84 6 56 37 98 87 
Route 7 : 15 32 82 24 47 74 65 43 97 18 93 25 68 75 

--------------------------------------------------------------------------------(Solver execution current time: 24.120238304138184)
[INFO] AGES EXCLUDED
--------------------------------------------------------------------------------(Solver execution current time: 29.041457891464233)
[SOLUTION]
LNS
IT: 40
Exec Time: 4.919360160827637
obj_value: -47; obj_routes: 932
Route 1 : 31 40 12 21 81 62 71 37 90 87 16 66 25 6 56 75 
Route 2 : 20 28 49 70 11 78 99 61 
Route 3 : 23 1 73 51 50 36 100 86 
Route 4 : 5 55 13 41 63 35 10 91 60 19 85 69 4 54 
Route 5 : 26 76 17 67 2 29 9 59 52 3 22 79 72 38 88 53 
Route 6 : 14 64 30 33 80 7 57 39 43 89 83 34 84 93 8 58 
Route 7 : 15 32 82 24 47 74 65 97 18 48 27 77 68 46 98 96 

--------------------------------------------------------------------------------(Solver execution current time: 29.05513906478882)
[SOLUTION]
PartitionMaxRequests
Exec Time: 0.011971473693847656
obj_value: -47; obj_routes: 932
Route 1 : 23 1 73 51 50 36 100 86 
Route 2 : 31 40 12 21 81 62 71 37 90 87 16 66 25 6 56 75 
Route 3 : 20 28 49 70 11 78 99 61 
Route 4 : 5 55 13 41 63 35 10 91 60 19 85 69 4 54 
Route 5 : 26 76 17 67 2 29 9 59 52 3 22 79 72 38 88 53 
Route 6 : 14 64 30 33 80 7 57 39 43 89 83 34 84 93 8 58 
Route 7 : 15 32 82 24 47 74 65 97 18 48 27 77 68 46 98 96 

--------------------------------------------------------------------------------(Solver execution current time: 30.011234521865845)
[WARNING] Time Limit Exceeded
--------------------------------------------------------------------------------(Solver execution current time: 30.01131319999695)
[WARNING] Searching current best solution.
--------------------------------------------------------------------------------(Solver execution current time: 30.011946201324463)
[WARNING] Current best solution found.
--------------------------------------------------------------------------------(Solver execution current time: 30.01198124885559)
[INFO] Algorithm execution time : 30.01262402534485
--------------------------------------------------------------------------------(Solver execution current time: 30.01261067390442)
[SOLUTION]
Final Solution Verification
====================================
Constraints verification: 
Homogenous Capacity Constraint OK
Time Windwos Constraint OK
Pickup and Delivery Constraint OK
Fixed Requests Constraint OK
Limited Fleet Constraint OK
====================================
Obj Func verification: 
SOLUTION COST OK
------------------------------------
ROUTES TOTAL COST OK
------------------------------------
REQUESTS TOTAL COST OK
------------------------------------
OBJECTIVE VALUE: -47
ROUTES VALUE: 895
------------------------------------

Best Solution: 
obj_value: -47; obj_routes: 895
Route 1 : 31 40 12 21 81 62 9 59 8 71 46 90 96 58 
Route 2 : 20 28 49 70 11 78 99 61 38 88 
Route 3 : 23 1 73 51 50 36 100 86 
Route 4 : 5 55 13 63 35 2 52 16 66 19 85 69 4 54 
Route 5 : 26 76 41 17 67 10 29 60 91 3 22 79 72 53 
Route 6 : 14 64 30 33 80 7 57 39 27 77 89 83 48 34 84 6 56 37 98 87 
Route 7 : 15 32 82 24 47 74 65 43 97 18 93 25 68 75 

--------------------------------------------------------------------------------